
List of user-set options:

                                    Name   Value                used
                           compl_inf_tol = 1                     yes
                         constr_viol_tol = 1                     yes
                            dual_inf_tol = 1000                  yes
                           linear_solver = ma97                  yes
                              ma86_small = 1e-30                  no
                                  ma86_u = 0.0001                 no
                              ma97_order = best                  yes
                              ma97_small = 1e-30                 yes
                            ma97_switch1 = at_start              yes
                            ma97_switch2 = od_hd_reuse           yes
                                  ma97_u = 1e-06                 yes
                               ma97_umax = 0.5                   yes
                                max_iter = 1000                  yes
                    max_refinement_steps = 20                    yes
                    min_refinement_steps = 5                     yes
                                 mu_init = 1e-06                 yes
           mu_superlinear_decrease_power = 1.25                  yes
                   nlp_scaling_min_value = 1e-08                 yes
                        option_file_name = Preset_Case_851_pf.opt  yes
                             output_file = ./tmp/Preset_Case_851_pf.output  yes
                      print_user_options = yes                   yes
        required_infeasibility_reduction = 1                      no
                                     tol = 1e-08                 yes
                   warm_start_bound_frac = 1e-20                 yes
                   warm_start_bound_push = 1e-20                 yes
                   warm_start_init_point = yes                   yes
              warm_start_mult_bound_push = 1e-20                 yes
                warm_start_mult_init_max = 1e+40                 yes
             warm_start_slack_bound_frac = 1e-20                 yes
             warm_start_slack_bound_push = 1e-20                 yes

******************************************************************************
This program contains Ipopt, a library for large-scale nonlinear optimization.
 Ipopt is released as open source code under the Eclipse Public License (EPL).
         For more information visit http://projects.coin-or.org/Ipopt
******************************************************************************

This is Ipopt version 3.12.10, running with linear solver ma97.

Number of nonzeros in equality constraint Jacobian...:   123442
Number of nonzeros in inequality constraint Jacobian.:      213
Number of nonzeros in Lagrangian Hessian.............:    49069

Total number of variables............................:    31591
                     variables with only lower bounds:    12912
                variables with lower and upper bounds:    15130
                     variables with only upper bounds:        0
Total number of equality constraints.................:    31483
Total number of inequality constraints...............:       25
        inequality constraints with only lower bounds:        4
   inequality constraints with lower and upper bounds:        0
        inequality constraints with only upper bounds:       21

iter    objective    inf_pr   inf_du lg(mu)  ||d||  lg(rg) alpha_du alpha_pr  ls
   0 -5.1556992e+00 4.07e-03 1.02e+00  -6.0 0.00e+00    -  0.00e+00 0.00e+00   0
   1 -5.1657933e+00 8.90e+00 3.36e+01  -6.0 3.36e+05    -  9.77e-05 1.37e-03h  1
   2 -5.1657541e+00 8.90e+00 3.36e+01  -6.0 1.69e+03    -  1.15e-04 3.21e-05h  1
   3 -5.1577620e+00 8.87e+00 2.41e+02  -6.0 1.61e+04    -  8.40e-05 2.93e-03h  1
   4 -5.1554266e+00 8.86e+00 2.32e+02  -6.0 3.05e+03    -  1.09e-01 2.01e-03h  1
   5 -5.1550945e+00 8.85e+00 2.32e+02  -6.0 4.51e+04    -  2.11e-03 3.02e-04h  7
   6 -5.1549998e+00 8.85e+00 2.32e+02  -6.0 3.03e+03    -  7.80e-03 8.21e-05h 12
   7 -5.1549489e+00 8.85e+00 2.33e+02  -6.0 3.03e+03    -  3.74e-03 4.42e-05h 13
   8 -5.1549226e+00 8.85e+00 2.35e+02  -6.0 3.03e+03    -  2.31e-02 2.28e-05h 14
   9 -5.1516567e+00 8.83e+00 1.93e+02  -6.0 4.32e+04    -  2.90e-03 2.90e-03s 17
iter    objective    inf_pr   inf_du lg(mu)  ||d||  lg(rg) alpha_du alpha_pr  ls
  10r-5.1516567e+00 8.83e+00 9.99e+02   0.9 0.00e+00    -  0.00e+00 0.00e+00R  1
  11r-5.1566131e+00 8.83e+00 2.30e+03   0.9 5.42e+05    -  1.75e-07 3.10e-08f  1
  12 -5.1565778e+00 8.83e+00 1.22e+03  -6.0 5.38e+02    -  7.84e-04 2.78e-05h  1
  13 -5.1565588e+00 8.83e+00 4.57e+02  -6.0 3.64e+02    -  2.88e-05 1.15e-05h  8
  14 -5.1541709e+00 8.81e+00 3.62e+02  -6.0 3.77e+02    -  1.39e-05 1.46e-03h  1
  15 -5.1534744e+00 8.81e+00 3.65e+02  -6.0 3.69e+02    -  2.86e-03 4.24e-04h  1
  16 -5.1323604e+00 8.72e+00 7.50e+02  -6.0 3.28e+02    -  3.91e-03 9.76e-03h  1
  17 -5.1126306e+00 8.64e+00 7.07e+02  -6.0 3.31e+02    -  1.00e-02 9.41e-03h  1
  18 -5.0257620e+00 8.28e+00 1.73e+03  -6.0 3.31e+02    -  2.50e-02 4.19e-02h  1
  19 -5.0256310e+00 8.28e+00 2.37e+03  -6.0 3.22e+02    -  7.12e-02 6.58e-05h  1
iter    objective    inf_pr   inf_du lg(mu)  ||d||  lg(rg) alpha_du alpha_pr  ls
  20 -4.7254827e+00 7.09e+00 1.65e+04  -6.0 3.18e+02    -  6.37e-02 1.48e-01h  1
  21 -4.6770384e+00 6.89e+00 1.60e+04  -6.0 2.91e+02    -  3.11e-02 2.87e-02h  1
  22 -4.2387871e+00 5.08e+00 1.03e+04  -6.0 2.87e+02    -  6.93e-02 2.72e-01h  1
  23 -3.7008065e+00 2.28e+00 5.07e+04  -6.0 2.63e+02    -  1.27e-03 6.89e-01h  1
  24 -3.8544386e+00 1.06e+00 4.63e+04  -6.0 9.81e+01    -  4.53e-01 6.97e-01f  1
  25 -4.0601026e+00 3.46e-01 3.59e+04  -6.0 2.04e+01    -  1.64e-01 6.69e-01h  1
  26 -4.1519351e+00 2.85e-01 1.61e+08  -6.0 4.76e+01    -  1.63e-01 2.50e-01h  1
  27 -4.5541754e+00 1.68e-01 1.40e+09  -6.0 4.72e+01    -  2.95e-02 1.00e+00f  1
  28 -4.8900104e+00 3.98e-01 2.69e+09  -6.0 4.81e+01    -  2.72e-01 1.00e+00h  1
  29 -5.0414823e+00 2.63e-01 7.21e+08  -6.0 1.57e+01    -  4.99e-01 1.00e+00h  1
iter    objective    inf_pr   inf_du lg(mu)  ||d||  lg(rg) alpha_du alpha_pr  ls
  30 -5.2290830e+00 3.24e-01 2.57e+08  -6.0 1.93e+01    -  5.98e-02 6.18e-01h  1
  31 -5.2282681e+00 3.12e-01 2.47e+08  -6.0 2.15e+01    -  6.27e-01 3.89e-02h  1
  32 -5.2930344e+00 2.50e-01 1.89e+08  -6.0 5.63e+01    -  4.36e-02 2.38e-01f  1
  33 -5.2933455e+00 2.27e-01 1.68e+08  -6.0 3.20e+01    -  4.34e-01 1.07e-01h  1
  34 -5.3256199e+00 1.56e-01 6.41e+07  -6.0 5.54e+01    -  5.18e-01 5.40e-01h  1
  35 -5.3320121e+00 1.46e-01 5.84e+07  -6.0 6.88e+01    -  1.70e-01 8.48e-02h  1
  36 -5.3934546e+00 4.44e-01 4.59e+06  -6.0 7.97e+01    -  8.10e-02 7.35e-01f  1
  37 -5.4221511e+00 6.01e-01 7.14e+06  -6.0 5.38e+01    -  4.08e-01 3.77e-01h  1
  38 -5.5066599e+00 1.75e+00 1.82e+07  -6.0 8.63e+01    -  3.40e-01 1.00e+00h  1
  39 -5.5215941e+00 1.31e+00 1.34e+07  -6.0 2.06e+02    -  5.79e-01 2.57e-01h  1
iter    objective    inf_pr   inf_du lg(mu)  ||d||  lg(rg) alpha_du alpha_pr  ls
  40 -5.5349365e+00 1.09e+00 1.12e+07  -6.0 2.50e+02    -  7.25e-01 1.65e-01h  1
  41 -5.5960824e+00 2.35e+00 5.44e+06  -6.0 3.96e+02    -  6.38e-01 4.80e-01h  1
  42 -5.6026062e+00 2.21e+00 5.02e+06  -6.0 6.60e+02    -  5.16e-02 7.69e-02h  1
  43 -5.6043475e+00 2.07e+00 4.69e+06  -6.0 5.18e+02    -  5.50e-01 6.50e-02h  1
  44 -5.6161192e+00 1.60e+00 3.31e+06  -6.0 9.02e+02    -  7.67e-02 2.97e-01h  1
  45 -5.6237408e+00 1.17e+00 2.35e+06  -6.0 8.33e+02    -  1.47e-01 2.91e-01h  1
  46 -5.6381091e+00 1.76e+00 5.99e+05  -6.0 8.07e+02    -  5.97e-01 7.47e-01h  1
  47 -5.6417317e+00 1.55e+00 4.81e+05  -6.0 8.59e+02    -  5.86e-01 1.96e-01h  1
  48 -5.6593471e+00 4.72e+01 9.47e+04  -6.0 1.76e+03    -  3.51e-01 8.03e-01h  1
  49 -5.6617930e+00 3.00e+01 4.43e+04  -6.0 1.10e+03    -  4.13e-01 5.32e-01h  1
iter    objective    inf_pr   inf_du lg(mu)  ||d||  lg(rg) alpha_du alpha_pr  ls
  50 -5.6675293e+00 3.84e+01 2.45e+04  -6.0 2.25e+03    -  4.04e-01 4.47e-01h  1
  51 -5.6735330e+00 3.59e+01 7.63e+04  -6.0 1.88e+03    -  6.96e-01 4.64e-01h  1
  52 -5.6748930e+00 3.39e+01 2.66e+06  -6.0 1.42e+04    -  3.59e-03 8.06e-02h  1
  53 -5.6760340e+00 3.74e+01 2.66e+06  -6.0 1.33e+05    -  2.09e-03 3.17e-03f  1
  54 -5.6769298e+00 3.53e+01 2.50e+06  -6.0 4.22e+03    -  5.04e-04 6.07e-02h  1
  55 -5.6833339e+00 3.00e+01 1.60e+06  -6.0 2.64e+03    -  1.18e-02 3.57e-01f  1
  56 -5.6839189e+00 2.93e+01 1.57e+06  -6.0 2.47e+03    -  4.87e-02 2.29e-02h  1
  57r-5.6839189e+00 2.93e+01 1.00e+03   1.4 0.00e+00    -  0.00e+00 9.75e-08R  2
  58r-5.6838818e+00 2.93e+01 1.78e+03   1.4 1.49e+06    -  4.60e-10 3.52e-11f  2
  59r-5.6938848e+00 2.93e+01 1.78e+03   1.4 1.17e+05    -  1.34e-07 7.72e-08f  1
iter    objective    inf_pr   inf_du lg(mu)  ||d||  lg(rg) alpha_du alpha_pr  ls
  60 -5.6937619e+00 2.90e+01 5.20e+03  -6.0 3.61e+01    -  2.27e-06 1.18e-02h  1
  61 -5.6935525e+00 2.85e+01 5.10e+03  -6.0 3.66e+01    -  5.65e-02 1.84e-02h  1
  62 -5.6882752e+00 1.60e+01 2.82e+03  -6.0 3.83e+01    -  3.40e-02 4.36e-01h  1
  63 -5.6867452e+00 1.46e+01 2.57e+03  -6.0 2.54e+02    -  7.58e-02 8.74e-02h  1
  64 -5.6805483e+00 8.66e+00 1.54e+03  -6.0 8.24e+01    -  3.71e-01 4.09e-01h  1
  65 -5.6754140e+00 2.62e+00 4.85e+02  -6.0 1.18e+01    -  6.39e-01 6.97e-01h  1
  66 -5.6762383e+00 3.70e-03 5.08e+02  -6.0 4.04e+00    -  9.39e-01 1.00e+00h  1
  67 -5.6882140e+00 1.41e-02 1.49e+01  -6.0 1.00e+01    -  9.00e-01 1.00e+00h  1
  68 -5.6898603e+00 1.46e-02 1.18e+01  -6.0 6.31e+01    -  6.92e-01 1.88e-01h  1
  69 -5.6975452e+00 1.65e-01 3.08e+01  -6.0 1.19e+02    -  9.09e-01 5.36e-01h  1
iter    objective    inf_pr   inf_du lg(mu)  ||d||  lg(rg) alpha_du alpha_pr  ls
  70 -5.6980863e+00 6.69e-01 7.49e+01  -6.0 2.49e+02    -  8.41e-01 5.95e-01h  1
  71 -5.6983795e+00 1.50e-04 2.38e+02  -6.0 1.95e+00  -4.0 5.17e-01 1.00e+00h  1
  72 -5.7031846e+00 1.47e+00 2.07e+02  -6.0 1.68e+03    -  1.39e-01 1.32e-01h  1
  73 -5.7070437e+00 5.58e+00 2.77e+03  -6.0 9.55e+02    -  3.55e-01 5.42e-01h  1
  74 -5.7069991e+00 6.07e-04 3.53e+03  -6.0 1.38e+00  -4.5 5.99e-01 1.00e+00h  1
  75 -5.7072961e+00 3.81e-04 2.74e+02  -6.0 3.19e+00  -5.0 1.00e+00 9.22e-01h  1
  76 -5.7079953e+00 3.13e-03 2.61e-01  -6.0 8.50e+00  -5.4 1.00e+00 1.00e+00f  1
  77 -5.7094339e+00 1.56e-02 1.04e+00  -6.0 1.90e+01  -5.9 1.00e+00 1.00e+00h  1
  78 -5.7117742e+00 5.12e-02 2.85e+00  -6.0 3.45e+01  -6.4 1.00e+00 1.00e+00h  1
  79 -5.7158584e+00 2.56e-01 4.52e+00  -6.0 9.35e+01  -6.9 1.00e+00 1.00e+00h  1
iter    objective    inf_pr   inf_du lg(mu)  ||d||  lg(rg) alpha_du alpha_pr  ls
  80 -5.7232233e+00 1.34e+00 5.72e+00  -6.0 5.48e+02  -7.3 3.24e-01 3.67e-01h  1
  81 -5.7221805e+00 2.35e-01 2.69e+02  -6.0 7.67e+01  -7.8 1.00e+00 1.00e+00h  1
  82 -5.7308485e+00 1.31e+00 1.43e+03  -6.0 7.49e+02  -7.4 2.78e-01 2.71e-01h  1
  83 -5.7317892e+00 8.11e+01 3.80e+03  -6.0 6.48e+04    -  1.07e-02 3.10e-02h  1
  84 -5.7320502e+00 8.69e+01 2.77e+03  -6.0 3.23e+04    -  2.35e-02 1.99e-02h  1
  85 -5.7337616e+00 7.78e+01 2.66e+04  -6.0 4.39e+03    -  2.20e-01 1.15e-01h  1
  86 -5.7399507e+00 5.65e+01 6.98e+03  -6.0 3.12e+03    -  4.69e-01 4.89e-01h  1
  87 -5.7400938e+00 5.60e+01 2.27e+05  -6.0 3.20e+03    -  3.59e-01 8.86e-03h  1
  88 -5.7436434e+00 5.22e+01 1.58e+05  -6.0 3.22e+03    -  1.81e-01 2.24e-01h  1
  89 -5.7500181e+00 3.67e+01 2.43e+04  -6.0 1.27e+03    -  2.19e-01 3.73e-01h  1
iter    objective    inf_pr   inf_du lg(mu)  ||d||  lg(rg) alpha_du alpha_pr  ls
  90 -5.7569693e+00 2.51e+01 1.48e+05  -6.0 4.05e+02    -  4.09e-01 3.23e-01h  1
  91r-5.7569693e+00 2.51e+01 1.00e+03   1.3 0.00e+00    -  0.00e+00 1.52e-07R  2
  92r-5.7681697e+00 2.51e+01 1.00e+03   1.3 4.78e+05    -  1.09e-07 9.72e-08f  1
  93 -5.7680480e+00 2.49e+01 4.24e+03  -6.0 2.68e+02    -  2.37e-06 1.00e-02h  1
  94 -5.7676283e+00 2.40e+01 4.09e+03  -6.0 2.50e+02    -  1.31e-02 3.33e-02h  1
  95 -5.7662031e+00 2.13e+01 3.63e+03  -6.0 1.47e+02    -  3.44e-02 1.14e-01h  1
  96 -5.7646780e+00 1.85e+01 3.15e+03  -6.0 6.75e+01    -  1.98e-01 1.33e-01h  1
  97 -5.7577639e+00 5.98e+00 1.02e+03  -6.0 6.65e+01    -  4.73e-01 6.76e-01h  1
  98 -5.7537168e+00 1.06e-02 1.25e+02  -6.0 1.89e+01    -  3.98e-01 1.00e+00h  1
  99 -5.7540486e+00 1.76e-05 3.81e+00  -6.0 5.92e-01    -  9.73e-01 1.00e+00h  1
iter    objective    inf_pr   inf_du lg(mu)  ||d||  lg(rg) alpha_du alpha_pr  ls
 100 -5.7552331e+00 1.47e-03 2.61e+00  -6.0 8.78e+00    -  9.76e-01 6.81e-01h  1
 101 -5.7596716e+00 3.79e-01 1.05e+01  -6.0 2.18e+02    -  8.51e-01 4.62e-01f  1
 102 -5.7627610e+00 5.25e-01 1.05e+01  -6.0 3.37e+02    -  4.32e-02 2.83e-01h  1
 103 -5.7591245e+00 3.63e-01 5.39e+02  -6.0 1.39e+02    -  9.26e-01 1.00e+00h  1
 104 -5.7592537e+00 3.57e-01 3.61e+03  -6.0 9.84e+02    -  8.15e-01 8.30e-02h  3
 105 -5.7593452e+00 4.12e-01 4.28e+03  -6.0 2.22e+03    -  6.31e-01 4.92e-02h  3
 106 -5.7594887e+00 6.36e-01 4.65e+03  -6.0 1.22e+03    -  9.47e-01 9.77e-02h  3
 107 -5.7599486e+00 3.95e-01 8.16e+02  -6.0 1.98e+02    -  5.47e-01 1.00e+00H  1
 108 -5.7609084e+00 2.02e-02 1.60e+01  -6.0 2.98e+01  -7.9 3.53e-01 1.00e+00h  1
 109 -5.7609239e+00 3.84e-01 2.84e+01  -6.0 1.13e+03    -  8.41e-01 1.27e-01h  2
iter    objective    inf_pr   inf_du lg(mu)  ||d||  lg(rg) alpha_du alpha_pr  ls
 110 -5.7609630e+00 1.21e+00 9.06e+01  -6.0 2.63e+03    -  1.00e+00 8.26e-02h  2
 111 -5.7609843e+00 1.55e+00 1.02e+02  -6.0 2.10e+03    -  4.88e-01 7.35e-02h  3
 112 -5.7609961e+00 1.65e+00 1.34e+02  -6.0 1.98e+03    -  1.00e+00 5.19e-02h  4
 113 -5.7610022e+00 1.68e+00 1.30e+02  -6.0 1.60e+03    -  7.78e-01 4.84e-02h  5
 114 -5.7611092e+00 3.60e+01 1.62e+01  -6.0 1.69e+03    -  1.00e+00 8.38e-01h  1
 115 -5.7611622e+00 4.54e+01 1.62e+01  -6.0 3.67e+03    -  4.28e-01 3.05e-01h  1
 116 -5.7611319e+00 4.45e+01 5.77e+01  -6.0 4.04e+03    -  1.94e-02 1.57e-01h  1
 117 -5.7608124e+00 2.34e+00 3.36e+02  -6.0 3.48e+02    -  2.91e-01 1.00e+00h  1
 118 -5.7607914e+00 2.77e-01 4.17e+00  -6.0 1.36e+02    -  1.00e+00 1.00e+00h  1
 119 -5.7607891e+00 7.67e-05 7.06e-04  -6.0 1.95e+00    -  1.00e+00 1.00e+00h  1
iter    objective    inf_pr   inf_du lg(mu)  ||d||  lg(rg) alpha_du alpha_pr  ls
 120 -5.7607891e+00 6.44e-10 6.45e-10  -6.0 6.39e-03    -  1.00e+00 1.00e+00h  1
 121 -5.7609256e+00 2.73e+00 8.11e+01  -7.5 5.50e+02    -  4.86e-01 7.66e-01f  1
 122 -5.7609167e+00 7.75e-01 7.58e+00  -7.5 1.61e+02    -  8.67e-01 8.20e-01h  1
 123 -5.7609107e+00 2.67e-02 3.28e-02  -7.5 4.03e+01    -  1.00e+00 1.00e+00h  1
 124 -5.7609106e+00 4.94e-07 3.21e-07  -7.5 1.62e-01    -  1.00e+00 1.00e+00h  1
 125 -5.7609106e+00 2.84e-10 1.54e-11  -7.5 9.09e-05    -  1.00e+00 1.00e+00h  1
 126 -5.7609121e+00 4.26e-03 9.54e-01  -9.0 1.99e+01    -  9.30e-01 8.26e-01h  1
 127 -5.7609124e+00 1.94e-04 2.82e-04  -9.0 3.49e+00    -  1.00e+00 1.00e+00h  1
 128 -5.7609124e+00 3.00e-10 4.06e-09  -9.0 3.56e-03    -  1.00e+00 1.00e+00h  1

Number of Iterations....: 128

                                   (scaled)                 (unscaled)
Objective...............:  -4.5007128034154551e+00   -5.7609123883717821e+00
Dual infeasibility......:   4.0612817659728862e-09    5.1984406604452946e-09
Constraint violation....:   3.0027993329698188e-10    3.0027993329698188e-10
Complementarity.........:   1.3025115003348840e-09    1.6672147204286516e-09
Overall NLP error.......:   4.0612817659728862e-09    5.1984406604452946e-09


Number of objective function evaluations             = 231
Number of objective gradient evaluations             = 128
Number of equality constraint evaluations            = 231
Number of inequality constraint evaluations          = 231
Number of equality constraint Jacobian evaluations   = 132
Number of inequality constraint Jacobian evaluations = 132
Number of Lagrangian Hessian evaluations             = 128
Total CPU secs in IPOPT (w/o function evaluations)   =    223.763
Total CPU secs in NLP function evaluations           =      5.806

EXIT: Optimal Solution Found.
